(set-logic QF_NRA)
(declare-fun y1 () Real)
(declare-fun y12 () Real)
(declare-fun y23 () Real)
(declare-fun y34 () Real)
(declare-fun y41 () Real)
(assert
(and
(and (<= (/ 26181 10000) y1) (<= y1 (/ 26508 10000)))(and (<= 2 y12) (<= y12 (/ 246350884418 100000000000)))(and (<= 2 y23) (<= y23 (/ 246350884418 100000000000)))(and (<= 2 y34) (<= y34 (/ 246350884418 100000000000)))(and (<= 2 y41) (<= y41 (/ 246350884418 100000000000)))(not (< (+ (* 2 (* (/ 314159265 100000000) (/ 061714 1000000))) (+ (* (+ (- (/ 014502 1000000)) (+ (/ 134266 1000000) (+ (- (/ 059882 1000000)) (- (/ 059882 1000000))))) y1) (+ (* 2 (* (+ (- (/ 02407 100000)) (/ 02407 100000)) y12)) (+ (* 2 (* (+ (/ 02407 100000) (- (/ 02407 100000))) y23)) (+ (* 2 (* (+ (- (/ 02407 100000)) (- (/ 02407 100000))) y34)) (+ (* 2 (* (+ (- (/ 02407 100000)) (- (/ 02407 100000))) y41)) (+ (/ 104941 1000000) (+ (- (/ 631477 1000000)) (+ (/ 261947 1000000) (/ 261947 1000000)))))))))) 0)))
)
(check-sat)
(exit)
